GLPSOL: GLPK LP/MIP Solver, v4.65
Parameter(s) specified in the command line:
 -m transportation-increasing-rates.mod -d transportation-increasing-rates.dat
 --log transportation-increasing-rates.log
Reading model section from transportation-increasing-rates.mod...
44 lines were read
Reading data section from transportation-increasing-rates.dat...
33 lines were read
Checking (line 16)...
Generating Availability_at_Supply_Points...
Generating Requirement_at_Demand_Points...
Generating Total_Transported...
Generating Total_Costs...
Model has been successfully generated
GLPK Simplex Optimizer, v4.65
35 rows, 72 columns, 168 non-zeros
Preprocessing...
34 rows, 48 columns, 96 non-zeros
Scaling...
 A: min|aij| =  1.000e+00  max|aij| =  1.000e+00  ratio =  1.000e+00
Problem data seem to be well scaled
Constructing initial basis...
Size of triangular part is 34
      0: obj =   0.000000000e+00 inf =   7.500e+02 (6)
     12: obj =   3.745000000e+03 inf =   0.000e+00 (0)
*    22: obj =   2.772500000e+03 inf =   0.000e+00 (0)
OPTIMAL LP SOLUTION FOUND
Time used:   0.0 secs
Memory used: 0.2 Mb (210087 bytes)
Optimal cost: 2772.5.
From S1 to D5, transport 100=100+0 amount for 500 (unit cost: 5/6.25).
From S2 to D1, transport 120=100+20 amount for 125 (unit cost: 1/1.25).
From S2 to D2, transport 130=100+30 amount for 275 (unit cost: 2/2.5).
From S3 to D2, transport 10=10+0 amount for 50 (unit cost: 5/6.25).
From S3 to D3, transport 170=100+70 amount for 187.5 (unit cost: 1/1.25).
From S3 to D5, transport 10=10+0 amount for 40 (unit cost: 4/5).
From S4 to D4, transport 90=90+0 amount for 720 (unit cost: 8/10).
From S4 to D6, transport 120=100+20 amount for 875 (unit cost: 7/8.75).
Model has been successfully processed
